* File: lo1-b.mps
NAME          EXAMPLE
ROWS
 N  obj
 L  c1
 L  c2
 L  c3
 L  c4
COLUMNS
    x1        obj       -4.5           c1        0.7
    x1        c2        0.5            c3        1.0
    x1        c4        0.1
    x2        obj       -9.0           c1        1.0
    x2        c2        0.8333333333   c3        0.66666667
    x2        c4        0.25
RHS
    rhs       c1        630.0          c2        600.0
    rhs       c3        708.0          c4        135.0
ENDATA
